%nprocshared=48
%chk=QST2_YRhMeH_sigma_YRhMeH.chk
%mem=16GB
# wb97xd def2TZVPP SCRF=(solvent=dichloromethane) opt=qst2 freq

ts_xyz/YRhMeH_sigma.xyz

0 1
C          1.77948        1.20834       -0.12784
C          1.77936       -1.20852       -0.12784
C          3.16091        1.21090        0.00361
C          3.16078       -1.21123        0.00360
C          3.84713       -0.00020        0.08625
H          3.71340        2.14387        0.03449
H          3.71318       -2.14426        0.03449
C          0.91188        2.41036       -0.37771
H          0.89053        2.60538       -1.45146
H          1.27363        3.32300        0.10932
C          0.91163       -2.41045       -0.37771
H          0.89026       -2.60547       -1.45147
H          1.27328       -3.32313        0.10931
N         -0.49906        2.13733        0.03822
N         -0.49928       -2.13728        0.03822
C         -3.39544        0.00014       -0.00161
H         -2.76163        0.00015        0.89930
H         -4.01441        0.89353        0.00748
H         -4.01441       -0.89324        0.00749
C         -1.41243        2.97768       -0.74418
H         -2.43282        2.81285       -0.40336
H         -1.17092        4.04137       -0.62844
H         -1.34522        2.70595       -1.79511
C         -0.64428        2.48063        1.46329
H         -0.47661        3.55390        1.61869
H         -1.64573        2.22611        1.80385
H          0.07857        1.91782        2.04857
C         -1.41274       -2.97753       -0.74417
H         -1.17135       -4.04124       -0.62843
H         -2.43312       -2.81258       -0.40335
H         -1.34550       -2.70581       -1.79510
C         -0.64454       -2.48055        1.46329
H         -1.64596       -2.22593        1.80385
H         -0.47697       -3.55384        1.61869
H          0.07838       -1.91782        2.04857
H         -2.79233        0.00014       -0.92869
H          4.92368       -0.00026        0.19919
C          1.08095       -0.00005       -0.15302
Rh        -0.81901        0.00004       -0.12419

ts_xyz/YRhMeH.xyz

0 1
C         -1.21188        1.74664       -0.12134
C          1.21188        1.74664       -0.12134
C         -1.21391        3.10592        0.16008
C          1.21390        3.10592        0.16008
C         -0.00000        3.77599        0.30881
H         -2.14510        3.65194        0.26001
H          2.14510        3.65194        0.26001
C         -2.40004        0.87618       -0.42675
H         -2.56517        0.88006       -1.50566
H         -3.32559        1.21589        0.04755
C          2.40004        0.87618       -0.42675
H          2.56517        0.88006       -1.50566
H          3.32559        1.21589        0.04755
N         -2.12649       -0.54652       -0.03824
N          2.12649       -0.54652       -0.03824
C          0.00000       -2.85172        0.69042
H          0.00000       -2.69755        1.78095
H         -0.88316       -3.46527        0.47392
H          0.88316       -3.46527        0.47392
C         -2.96139       -1.44814       -0.84237
H         -2.78568       -2.47241       -0.52352
H         -4.02369       -1.20986       -0.71934
H         -2.68983       -1.35312       -1.89097
C         -2.46812       -0.71851        1.38512
H         -3.53252       -0.52018        1.54827
H         -2.23835       -1.73476        1.69285
H         -1.88263       -0.02385        1.98473
C          2.96139       -1.44814       -0.84237
H          4.02369       -1.20986       -0.71934
H          2.78568       -2.47241       -0.52352
H          2.68983       -1.35312       -1.89097
C          2.46812       -0.71851        1.38512
H          2.23835       -1.73476        1.69285
H          3.53252       -0.52018        1.54827
H          1.88263       -0.02385        1.98473
H          0.00000       -0.29222       -1.62675
H         -0.00000        4.83441        0.53449
C         -0.00000        1.07846       -0.22253
Rh         0.00000       -0.86426       -0.20902

