%nprocshared=8
%chk=YRh.chk
%mem=1GB
# wb97xd def2TZVPP SCRF=(solvent=dichloromethane) opt freq

YRh

0 1
C         -1.54025       -0.12714        1.22473
C         -1.54025       -0.12714       -1.22473
C         -2.93323       -0.00238        1.22198
C         -2.93323       -0.00238       -1.22198
C         -3.62455        0.08832        0.00000
H         -3.49265        0.00923        2.16621
H         -3.49265        0.00923       -2.16621
C         -0.65353       -0.43153        2.40656
H         -0.58666       -1.52823        2.54243
H         -0.99735        0.00858        3.37020
C         -0.65353       -0.43153       -2.40656
H         -0.58666       -1.52823       -2.54243
H         -0.99735        0.00858       -3.37020
N          0.74309        0.03865        2.10708
N          0.74309        0.03865       -2.10708
C          1.69819       -0.67987        2.96956
H          2.71245       -0.28942        2.78319
H          1.44815       -0.53295        4.04510
H          1.67011       -1.75226        2.72367
C          0.81382        1.48670        2.41887
H          0.65030        1.64725        3.50973
H          1.80238        1.87757        2.13265
H          0.03812        2.01245        1.84234
C          1.69819       -0.67987       -2.96956
H          1.44815       -0.53295       -4.04510
H          2.71245       -0.28942       -2.78319
H          1.67011       -1.75226       -2.72367
C          0.81382        1.48670       -2.41887
H          1.80238        1.87757       -2.13265
H          0.65030        1.64725       -3.50973
H          0.03812        2.01245       -1.84234
C         -0.83963       -0.13035        0.00000
H         -4.71240        0.20091        0.00000
Rh         1.02188       -0.14097        0.00000

