%nprocshared=8
%chk=YRhMeH.chk
%mem=1GB
# wb97xd def2TZVPP SCRF=(solvent=dichloromethane) opt freq

YRhMeH

0 1
C         -1.22737        1.72623       -0.13257
C          1.22708        1.72644       -0.13255
C         -1.22558        3.08640        0.19424
C          1.22506        3.08660        0.19426
C         -0.00032        3.75610        0.37370
H         -2.16793        3.63838        0.29926
H          2.16731        3.63874        0.29931
C         -2.39075        0.84394       -0.51536
H         -2.46403        0.80067       -1.62024
H         -3.37462        1.17568       -0.11923
C          2.39062        0.84434       -0.51532
H          2.46393        0.80111       -1.62020
H          3.37442        1.17625       -0.11917
N         -2.11690       -0.56861       -0.06292
N          2.11699       -0.56827       -0.06292
C          0.00025       -2.66073        0.95987
H          0.00025       -2.37195        2.03465
H         -0.89187       -3.30769        0.81774
H          0.89247       -3.30754        0.81770
C         -2.94771       -1.51144       -0.83503
H         -2.76494       -2.53083       -0.46202
H         -4.02638       -1.26386       -0.72341
H         -2.66148       -1.45384       -1.89655
C         -2.48002       -0.66471        1.37116
H         -3.55736       -0.42564        1.50094
H         -2.28138       -1.68189        1.73466
H         -1.87168        0.05705        1.93953
C          2.94795       -1.51094       -0.83506
H          4.02658       -1.26319       -0.72343
H          2.76534       -2.53037       -0.46209
H          2.66172       -1.45334       -1.89658
C          2.48012       -0.66436        1.37115
H          2.28160       -1.68159        1.73461
H          3.55743       -0.42517        1.50095
H          1.87168        0.05729        1.93954
H          0.00001       -0.13454       -1.63664
H         -0.00041        4.81704        0.63871
C         -0.00009        1.05052       -0.23231
Rh         0.00007       -0.86718       -0.23765

