%nprocshared=12
%mem=32MW
%chk=NCNPtMe.chk
# opt freq gen scrf=(iefpcm,solvent=thf) m06 EmpiricalDispersion=GD3 Pseudo=Read

M06 (NCN)PtMe; Custom Lanl2tz(f)+6-311g(d,p) basis set

0 1
 Pt                -0.00001800   -0.61196900   -0.12349600
 C                  0.00003700    1.36908300   -0.23459000
 C                  1.22203300    2.05429000   -0.22013400
 C                 -1.22191900    2.05435800   -0.22012400
 C                  1.22913800    3.45241900   -0.11033300
 C                 -1.22894500    3.45248800   -0.11032300
 C                  0.00011600    4.14097000   -0.03548100
 H                  2.16245300    4.01450400   -0.09186100
 H                 -2.16222800    4.01462600   -0.09184300
 H                  0.00014700    5.22354800    0.06177200
 N                 -2.13182100   -0.27472000   -0.00459300
 N                  2.13180400   -0.27483600   -0.00460000
 C                 -0.00007700   -2.77071700    0.09288600
 H                 -0.88299700   -3.16287200    0.63210000
 H                 -0.00008400   -3.24317600   -0.90762100
 H                  0.88281700   -3.16291800    0.63211000
 C                  2.40396000    1.14972100   -0.48652200
 H                  2.53801900    1.07604800   -1.57524300
 H                  3.35065500    1.51554400   -0.06107400
 C                 -2.40389900    1.14985700   -0.48650600
 H                 -2.53796800    1.07619700   -1.57522500
 H                 -3.35057000    1.51573500   -0.06105300
 C                 -2.85347000   -1.29331100   -0.85338200
 C                 -4.32177600   -1.02706900   -1.20606300
 H                 -2.74223000   -2.25392700   -0.33710700
 H                 -2.27194800   -1.36733700   -1.78049800
 H                 -4.66854300   -1.84391500   -1.84982400
 H                 -4.98143800   -0.98962000   -0.33534500
 H                 -4.44897800   -0.09702500   -1.77075000
 C                 -2.42212100   -0.39286800    1.47600900
 C                 -3.88801400   -0.34363900    1.91280600
 H                 -1.85930900    0.42275500    1.94592700
 H                 -1.96627400   -1.33175300    1.80851500
 H                 -3.92098100   -0.25424100    3.00442200
 H                 -4.42739200    0.51586000    1.49672900
 H                 -4.42464000   -1.25886200    1.64250500
 C                  2.42210800   -0.39297500    1.47600100
 C                  3.88798800   -0.34345600    1.91280700
 H                  1.96644400   -1.33196000    1.80847400
 H                  1.85913200    0.42252300    1.94594000
 H                  3.92093300   -0.25420900    3.00443700
 H                  4.42483600   -1.25851000    1.64236900
 H                  4.42715500    0.51623600    1.49685500
 C                  2.85340100   -1.29347000   -0.85338100
 C                  4.32172800   -1.02732400   -1.20604100
 H                  2.27188700   -1.36745700   -1.78050500
 H                  2.74209300   -2.25408200   -0.33711100
 H                  4.66844500   -1.84418500   -1.84981000
 H                  4.44900000   -0.09728000   -1.77071400
 H                  4.98138400   -0.98993400   -0.33531600

Pt     0
S    1   1.00
      2.5470000              1.0000000
S    1   1.00
      1.6140000              1.0000000
S    1   1.00
      0.5167000              1.0000000
S    1   1.00
      0.2651000              1.0000000
S    1   1.00
      0.0580000              1.0000000
P    1   1.00
      2.9110000              1.0000000
P    1   1.00
      1.8360000              1.0000000
P    1   1.00
      0.5982000              1.0000000
P    1   1.00
      0.0996000              1.0000000
P    1   1.00
      0.0290000              1.0000000
D    1   1.00
      1.2430000              1.0000000
D    1   1.00
      0.4271000              1.0000000
D    1   1.00
      0.1370000              1.0000000
F    1   1.00
      0.9930000              1.0000000
****
C H N 0
6-311G(2d,p)
****

Pt     0
Pt-ECP     4     60
g potential
  5
1    728.9394056             -0.1619268
2    320.6567800          -1320.2873852
2     52.8680174           -298.3178135
2     12.0280128            -87.5837065
2      3.5238913             -8.1493274
s-g potential
  6
0    409.4437358              2.7334218
1    274.5419231             59.7024329
2    127.5658570            891.4589550
2     32.9036631            368.4467656
2      5.0593880            238.0263090
2      4.1506556           -107.0556454
p-g potential
  4
0    466.1728892              1.8878568
1    120.7888259             76.0138629
2     36.4118791            343.5511116
2      5.6985408            119.4911786
d-g potential
  5
0    249.5650763              2.9343678
1    126.6678585             59.3306571
2     63.1430586            452.4445194
2     17.9059470            210.4769479
2      4.2239373             58.6254112
f-g potential
  5
0    121.8158799              3.9534253
1     60.8757030             53.8555182
2     31.4767147            247.4305133
2      9.8811751            127.8187976
2      2.7319874             15.3772046


