%nprocshared=48
%mem=512MW
%chk=TS_Me-NCNPtPh_NCNPtPhMe.chk
# freq gen scrf=(iefpcm,solvent=thf) m06 EmpiricalDispersion=GD3 Pseudo=Read

M06 TS between (NCN)PtPhMe and Me-NCNPtPh; Custom Lanl2tz(f)+6-311g(d,p) basis set

1 1
Pt        -0.044451    0.039741   -0.395923
C          1.266938   -1.489506   -0.244600
C          0.695796   -2.678085    0.169288
C          2.558838   -1.097028    0.059107
C          1.487523   -3.542826    0.910942
C          3.335751   -1.971692    0.802446
C          2.801393   -3.192398    1.206106
H          1.077887   -4.480612    1.276650
H          4.349263   -1.698389    1.084624
H          3.413586   -3.872496    1.788351
N          1.769221    1.219860   -0.181697
N         -1.502344   -1.561308   -0.073929
C          0.724210   -0.981240   -2.160190
H          0.360935   -1.981139   -2.381055
H          1.768911   -0.902131   -2.447887
H          0.140858   -0.249280   -2.742601
C         -0.740183   -2.859526   -0.207261
H         -0.814189   -3.180092   -1.251142
H         -1.226555   -3.636596    0.388280
C          2.920473    0.273281   -0.416503
H          3.109889    0.267842   -1.495296
H          3.829617    0.652796    0.052601
C          1.776522    2.343899   -1.167186
C          2.974014    3.265998   -1.152448
H          0.857668    2.909187   -0.986909
H          1.675501    1.875777   -2.152180
H          2.892425    3.941417   -2.007406
H          3.009522    3.885126   -0.254110
H          3.921921    2.730116   -1.251123
C          1.759809    1.698454    1.249663
C          3.090568    2.015161    1.900375
H          1.274191    0.917460    1.842585
H          1.096073    2.565722    1.267035
H          2.876834    2.486518    2.862932
H          3.671674    1.113642    2.111164
H          3.712999    2.704030    1.328736
C         -1.955506   -1.401676    1.350782
C         -2.999773   -2.361368    1.878006
H         -2.328793   -0.381353    1.442569
H         -1.044854   -1.464568    1.957326
H         -3.077251   -2.198018    2.955905
H         -3.986886   -2.170842    1.453722
H         -2.750356   -3.415031    1.731281
C         -2.630499   -1.461395   -1.058081
C         -3.476097   -2.696565   -1.290820
H         -2.181838   -1.161582   -2.010573
H         -3.242851   -0.618845   -0.721255
H         -4.236628   -2.441794   -2.033016
H         -2.895263   -3.524852   -1.703061
H         -3.992689   -3.050897   -0.399999
C         -1.304429    1.578226    0.239270
C         -1.961153    2.271475   -0.781938
C         -1.550962    1.982489    1.550358
C         -2.827899    3.320456   -0.504913
H         -1.795014    1.989013   -1.822427
C         -2.414786    3.032030    1.833540
H         -1.064387    1.472865    2.381114
C         -3.057027    3.705099    0.806446
H         -3.325165    3.838164   -1.320490
H         -2.585913    3.324468    2.865783
H         -3.733241    4.525165    1.026949

Pt     0
S    1   1.00
      2.5470000              1.0000000
S    1   1.00
      1.6140000              1.0000000
S    1   1.00
      0.5167000              1.0000000
S    1   1.00
      0.2651000              1.0000000
S    1   1.00
      0.0580000              1.0000000
P    1   1.00
      2.9110000              1.0000000
P    1   1.00
      1.8360000              1.0000000
P    1   1.00
      0.5982000              1.0000000
P    1   1.00
      0.0996000              1.0000000
P    1   1.00
      0.0290000              1.0000000
D    1   1.00
      1.2430000              1.0000000
D    1   1.00
      0.4271000              1.0000000
D    1   1.00
      0.1370000              1.0000000
F    1   1.00
      0.9930000              1.0000000
****
C H N 0
6-311G(2d,p)
****

Pt     0
Pt-ECP     4     60
g potential
  5
1    728.9394056             -0.1619268
2    320.6567800          -1320.2873852
2     52.8680174           -298.3178135
2     12.0280128            -87.5837065
2      3.5238913             -8.1493274
s-g potential
  6
0    409.4437358              2.7334218
1    274.5419231             59.7024329
2    127.5658570            891.4589550
2     32.9036631            368.4467656
2      5.0593880            238.0263090
2      4.1506556           -107.0556454
p-g potential
  4
0    466.1728892              1.8878568
1    120.7888259             76.0138629
2     36.4118791            343.5511116
2      5.6985408            119.4911786
d-g potential
  5
0    249.5650763              2.9343678
1    126.6678585             59.3306571
2     63.1430586            452.4445194
2     17.9059470            210.4769479
2      4.2239373             58.6254112
f-g potential
  5
0    121.8158799              3.9534253
1     60.8757030             53.8555182
2     31.4767147            247.4305133
2      9.8811751            127.8187976
2      2.7319874             15.3772046


