%nprocshared=12
%mem=64MW
%chk=TS_NCNPtPhMe_NCNPt_PhMe.chk
# opt=(calcFC,ts,noeigentest) freq gen scrf=(iefpcm,solvent=thf) m06 EmpiricalDispersion=GD3 Pseudo=Read

M06 TS between (NCN)PtPhMe and NCNPt + PhMe; Custom Lanl2tz(f)+6-311g(d,p) basis set

1 1
Pt         0.019273   -0.079459   -0.410623
C         -1.498257    1.181917   -0.041477
C         -1.237921    2.540515    0.159604
C         -2.811380    0.696994   -0.097922
C         -2.300155    3.411294    0.445784
C         -3.880207    1.561221    0.174782
C         -3.613726    2.909190    0.478095
H         -2.117465    4.469153    0.618788
H         -4.905772    1.200389    0.143194
H         -4.436728    3.578713    0.708820
N         -1.699490   -1.485959   -0.118482
N          1.132332    1.803470   -0.005500
C          0.856492   -1.240343   -2.104006
H          1.686426   -0.721773   -2.582014
H         -0.085271   -1.013142   -2.629272
H          1.024218   -2.317809   -2.100465
C          0.162251    2.961398   -0.163184
H          0.187644    3.246791   -1.222538
H          0.513993    3.824443    0.414698
C         -2.921397   -0.716432   -0.584113
H         -2.894151   -0.731897   -1.682500
H         -3.843575   -1.217001   -0.270451
C         -1.575860   -2.782605   -0.882627
C         -2.698175   -3.795946   -0.665940
H         -0.615502   -3.229259   -0.601697
H         -1.522221   -2.519192   -1.944491
H         -2.508807   -4.657101   -1.314476
H         -2.731831   -4.164812    0.363829
H         -3.681921   -3.396331   -0.933166
C         -1.766952   -1.738893    1.395191
C         -3.157951   -1.865082    2.018392
H         -1.231411   -0.922272    1.888907
H         -1.210120   -2.662802    1.579308
H         -3.020295   -2.118530    3.074837
H         -3.714347   -0.923012    1.979352
H         -3.764860   -2.654640    1.564897
C          1.503809    1.624519    1.462679
C          2.363175    2.713735    2.102147
H          2.020264    0.661297    1.541573
H          0.552515    1.534862    2.001181
H          2.434381    2.491592    3.172031
H          3.382954    2.724029    1.706226
H          1.931620    3.715976    2.008342
C          2.341943    2.025909   -0.893337
C          2.856240    3.461529   -1.040693
H          2.068313    1.649654   -1.886642
H          3.137822    1.393089   -0.493709
H          3.760792    3.424196   -1.657132
H          2.144409    4.113758   -1.554813
H          3.125293    3.924876   -0.088542
C          1.811421   -1.338357   -0.186700
C          3.146821   -1.083051   -0.566650
C          1.593705   -2.289144    0.832676
C          4.219205   -1.689405    0.101284
H          3.374833   -0.435422   -1.407612
C          2.668216   -2.892666    1.506185
H          0.590335   -2.560631    1.135615
C          3.988316   -2.590182    1.151318
H          5.234283   -1.464351   -0.212455
H          2.463812   -3.602785    2.302124
H          4.819515   -3.061486    1.665772

Pt     0
S    1   1.00
      2.5470000              1.0000000
S    1   1.00
      1.6140000              1.0000000
S    1   1.00
      0.5167000              1.0000000
S    1   1.00
      0.2651000              1.0000000
S    1   1.00
      0.0580000              1.0000000
P    1   1.00
      2.9110000              1.0000000
P    1   1.00
      1.8360000              1.0000000
P    1   1.00
      0.5982000              1.0000000
P    1   1.00
      0.0996000              1.0000000
P    1   1.00
      0.0290000              1.0000000
D    1   1.00
      1.2430000              1.0000000
D    1   1.00
      0.4271000              1.0000000
D    1   1.00
      0.1370000              1.0000000
F    1   1.00
      0.9930000              1.0000000
****
C H N 0
6-311G(2d,p)
****

Pt     0
Pt-ECP     4     60
g potential
  5
1    728.9394056             -0.1619268
2    320.6567800          -1320.2873852
2     52.8680174           -298.3178135
2     12.0280128            -87.5837065
2      3.5238913             -8.1493274
s-g potential
  6
0    409.4437358              2.7334218
1    274.5419231             59.7024329
2    127.5658570            891.4589550
2     32.9036631            368.4467656
2      5.0593880            238.0263090
2      4.1506556           -107.0556454
p-g potential
  4
0    466.1728892              1.8878568
1    120.7888259             76.0138629
2     36.4118791            343.5511116
2      5.6985408            119.4911786
d-g potential
  5
0    249.5650763              2.9343678
1    126.6678585             59.3306571
2     63.1430586            452.4445194
2     17.9059470            210.4769479
2      4.2239373             58.6254112
f-g potential
  5
0    121.8158799              3.9534253
1     60.8757030             53.8555182
2     31.4767147            247.4305133
2      9.8811751            127.8187976
2      2.7319874             15.3772046

