%nprocshared=20
%mem=512MW
%chk=TS_NCNPtMePh_NCNPtPhMe_interconversion.chk
# freq gen scrf=(iefpcm,solvent=thf) m06 EmpiricalDispersion=GD3 Pseudo=Read 

TS for interconversion between (NCN)PtMe[eq]Ph[ax] and (NCN)PtPh[eq]Me[ax]; M06 with Custom Lanl2tz(f)+6-311g(d,p) basis set

1 1
 Pt                 0.09698200   -0.01814200    0.06430000
 C                 -1.87279000    0.28585300   -0.27651600
 C                 -2.33587000    1.59235200   -0.47102000
 C                 -2.69958400   -0.82041600   -0.51473800
 C                 -3.70763600    1.80849500   -0.67080900
 C                 -4.07324400   -0.61790100   -0.71295300
 C                 -4.57334600    0.69933900   -0.73760400
 H                 -4.10050800    2.81240300   -0.81278900
 H                 -4.74207900   -1.45726600   -0.88842100
 H                 -5.63768800    0.86246300   -0.87742600
 N                 -0.65464200   -2.12521100    0.02040100
 N                  0.01725700    2.22491500    0.05940300
 C                  0.52096900   -0.13544300    2.10978600
 H                 -0.44193700    0.08370800    2.58229400
 H                  0.87533000   -1.14044000    2.33399100
 H                  1.28081600    0.59734400    2.37320400
 C                 -1.24110400    2.59467500   -0.71688100
 H                 -0.97712500    2.54499400   -1.78170400
 H                 -1.52410400    3.63086600   -0.50153400
 C                 -1.93805100   -2.08562800   -0.79971900
 H                 -1.62634200   -2.06849600   -1.85312600
 H                 -2.51464700   -3.00331900   -0.65201500
 C                  0.40465900   -2.95349100   -0.67863600
 C                  0.06025000   -4.41536800   -0.94911400
 H                  1.31129600   -2.88166300   -0.06781000
 H                  0.60940100   -2.43587900   -1.62493400
 H                  0.84162700   -4.83305500   -1.59205100
 H                  0.03890500   -5.01361800   -0.03370700
 H                 -0.89341500   -4.53168200   -1.47526100
 C                 -0.96022400   -2.64057000    1.42206300
 C                 -2.00012600   -3.75767900    1.55189200
 H                 -1.31956000   -1.79162800    2.00775100
 H                 -0.00465300   -2.96992600    1.84436700
 H                 -1.96508600   -4.11280700    2.58708100
 H                 -3.01707300   -3.39306800    1.37302800
 H                 -1.81282500   -4.61582600    0.90178800
 C                 -0.13197500    2.72508800    1.48573600
 C                 -0.22441500    4.23579800    1.70855200
 H                  0.72993400    2.36020600    2.04540300
 H                 -1.03075000    2.23661400    1.87920800
 H                 -0.51014100    4.39186100    2.75403900
 H                  0.73757300    4.73268200    1.55778900
 H                 -0.98052200    4.73125700    1.09171300
 C                  1.27006700    2.75000300   -0.61591600
 C                  1.22464600    4.16707700   -1.19090300
 H                  1.49280600    2.05462300   -1.43088700
 H                  2.07738300    2.64715800    0.11885500
 H                  2.19164300    4.35678400   -1.66850900
 H                  0.45665300    4.27526200   -1.96302300
 H                  1.07077500    4.94312900   -0.43955300
 C                  2.22542600   -0.34284800    0.06346900
 C                  3.21649500   -0.54300100    1.04206300
 C                  2.64106700   -0.36136800   -1.29075800
 C                  4.56406100   -0.74184900    0.68633300
 H                  2.97764100   -0.55361800    2.10300900
 C                  3.98219500   -0.55679600   -1.65388200
 H                  1.90305900   -0.22893700   -2.09160200
 C                  4.95443700   -0.74624700   -0.65864200
 H                  5.30494700   -0.89303100    1.46726300
 H                  4.26491500   -0.56240700   -2.70315200
 H                  5.99542600   -0.89800100   -0.92812700

Pt     0
S    1   1.00
      2.5470000              1.0000000
S    1   1.00
      1.6140000              1.0000000
S    1   1.00
      0.5167000              1.0000000
S    1   1.00
      0.2651000              1.0000000
S    1   1.00
      0.0580000              1.0000000
P    1   1.00
      2.9110000              1.0000000
P    1   1.00
      1.8360000              1.0000000
P    1   1.00
      0.5982000              1.0000000
P    1   1.00
      0.0996000              1.0000000
P    1   1.00
      0.0290000              1.0000000
D    1   1.00
      1.2430000              1.0000000
D    1   1.00
      0.4271000              1.0000000
D    1   1.00
      0.1370000              1.0000000
F    1   1.00
      0.9930000              1.0000000
****
C H N 0
6-311G(2d,p)
****

Pt     0
Pt-ECP     4     60
g potential
  5
1    728.9394056             -0.1619268
2    320.6567800          -1320.2873852
2     52.8680174           -298.3178135
2     12.0280128            -87.5837065
2      3.5238913             -8.1493274
s-g potential
  6
0    409.4437358              2.7334218
1    274.5419231             59.7024329
2    127.5658570            891.4589550
2     32.9036631            368.4467656
2      5.0593880            238.0263090
2      4.1506556           -107.0556454
p-g potential
  4
0    466.1728892              1.8878568
1    120.7888259             76.0138629
2     36.4118791            343.5511116
2      5.6985408            119.4911786
d-g potential
  5
0    249.5650763              2.9343678
1    126.6678585             59.3306571
2     63.1430586            452.4445194
2     17.9059470            210.4769479
2      4.2239373             58.6254112
f-g potential
  5
0    121.8158799              3.9534253
1     60.8757030             53.8555182
2     31.4767147            247.4305133
2      9.8811751            127.8187976
2      2.7319874             15.3772046

