%nprocshared=24
%mem=512MW
%chk=TS_Ph-NCNPtMe_NCNPtMePh.chk
# opt=(ts,calcfc,noeigentest) freq gen scrf=(iefpcm,solvent=thf) m06 EmpiricalDispersion=GD3 Pseudo=Read 

TS between Ph-(NCN)PtMe and NCNPtMe[eq]Ph[ax]; M06 with Custom Lanl2tz(f)+6-311g(d,p) basis set

1 1
Pt        -0.039772   -0.182813   -0.705939
C         -0.010967    0.052907    1.308617
C          1.195751   -0.240838    1.917517
C         -1.248247   -0.212001    1.885346
C          1.165803   -0.742633    3.210676
C         -1.256377   -0.723585    3.173447
C         -0.055504   -0.954755    3.839065
H          2.093012   -0.998210    3.717507
H         -2.200677   -0.970185    3.653106
H         -0.074505   -1.350387    4.848654
N         -2.190840   -0.415404   -0.394106
N          2.080938   -0.721477   -0.308737
C         -0.064061   -1.291685   -2.487515
H          0.893070   -1.183775   -3.007757
H         -0.859894   -0.930806   -3.147953
H         -0.236350   -2.356571   -2.302002
C          2.391450   -0.103412    1.034159
H          2.619387    0.953306    0.869235
H          3.281775   -0.564544    1.468850
C         -2.455641    0.009131    1.023988
H         -2.734331    1.063878    0.983058
H         -3.328023   -0.513770    1.419274
C         -2.972068    0.415957   -1.361925
C         -4.479021    0.350867   -1.267709
H         -2.644100    0.114937   -2.360085
H         -2.628073    1.444015   -1.209183
H         -4.894298    1.112202   -1.932577
H         -4.874610   -0.613089   -1.593175
H         -4.846309    0.563139   -0.260011
C         -2.442305   -1.897416   -0.554538
C         -3.640712   -2.499009    0.153346
H         -1.549881   -2.412445   -0.187704
H         -2.497233   -2.076880   -1.630427
H         -3.750781   -3.523355   -0.212066
H         -3.489890   -2.564873    1.234152
H         -4.581384   -1.981164   -0.035775
C          2.013114   -2.218228   -0.151338
C          3.302017   -2.916062    0.224549
H          1.644472   -2.611621   -1.100430
H          1.248786   -2.425873    0.603042
H          3.087947   -3.984245    0.310351
H          4.079953   -2.803637   -0.534262
H          3.700023   -2.591929    1.189373
C          3.082294   -0.374153   -1.379996
C          4.470603    0.017019   -0.922714
H          2.665640    0.429649   -1.989809
H          3.134742   -1.244745   -2.038559
H          5.095955    0.134410   -1.811031
H          4.479996    0.973471   -0.394661
H          4.942755   -0.733391   -0.285899
C          0.116593    1.792097    0.201229
C         -0.699180    2.628646    0.963600
C          1.132223    2.405053   -0.541910
C         -0.547047    4.005853    0.931592
H         -1.439992    2.234726    1.643705
C          1.281203    3.783845   -0.572264
H          1.809717    1.823225   -1.153895
C          0.437435    4.596189    0.160491
H         -1.203789    4.616582    1.543057
H          2.069528    4.212504   -1.182906
H          0.554754    5.674331    0.143651

Pt     0
S    1   1.00
      2.5470000              1.0000000
S    1   1.00
      1.6140000              1.0000000
S    1   1.00
      0.5167000              1.0000000
S    1   1.00
      0.2651000              1.0000000
S    1   1.00
      0.0580000              1.0000000
P    1   1.00
      2.9110000              1.0000000
P    1   1.00
      1.8360000              1.0000000
P    1   1.00
      0.5982000              1.0000000
P    1   1.00
      0.0996000              1.0000000
P    1   1.00
      0.0290000              1.0000000
D    1   1.00
      1.2430000              1.0000000
D    1   1.00
      0.4271000              1.0000000
D    1   1.00
      0.1370000              1.0000000
F    1   1.00
      0.9930000              1.0000000
****
C H N 0
6-311G(2d,p)
****

Pt     0
Pt-ECP     4     60
g potential
  5
1    728.9394056             -0.1619268
2    320.6567800          -1320.2873852
2     52.8680174           -298.3178135
2     12.0280128            -87.5837065
2      3.5238913             -8.1493274
s-g potential
  6
0    409.4437358              2.7334218
1    274.5419231             59.7024329
2    127.5658570            891.4589550
2     32.9036631            368.4467656
2      5.0593880            238.0263090
2      4.1506556           -107.0556454
p-g potential
  4
0    466.1728892              1.8878568
1    120.7888259             76.0138629
2     36.4118791            343.5511116
2      5.6985408            119.4911786
d-g potential
  5
0    249.5650763              2.9343678
1    126.6678585             59.3306571
2     63.1430586            452.4445194
2     17.9059470            210.4769479
2      4.2239373             58.6254112
f-g potential
  5
0    121.8158799              3.9534253
1     60.8757030             53.8555182
2     31.4767147            247.4305133
2      9.8811751            127.8187976
2      2.7319874             15.3772046


