%nprocshared=8
%chk=HZIr.chk
%mem=2GB
# wb97xd def2TZVPP SCRF=(solvent=dichloromethane) opt freq

HZIr

1 1
C       -0.23915000       1.51955000       1.18690000
C       -0.23915000       1.51955000      -1.18690000
C       -0.07739000       2.88049000       1.22947000
C       -0.07739000       2.88049000      -1.22947000
C        0.05562000       3.67210000       0.00000000
H       -0.07688000       3.40995000       2.18737000
H       -0.07688000       3.40995000      -2.18737000
O        0.22985000       4.89995000       0.00000000
N       -0.27763000       0.84266000       0.00000000
C       -0.55182000       0.58716000       2.33325000
H       -1.64587000       0.42711000       2.36050000
H       -0.22373000       0.98413000       3.31481000
C       -0.55182000       0.58716000      -2.33325000
H       -1.64587000       0.42711000      -2.36050000
H       -0.22373000       0.98413000      -3.31481000
N        0.06379000      -0.76475000       2.08774000
N        0.06379000      -0.76475000      -2.08774000
C       -0.61966000      -1.76858000       2.93231000
H       -0.13040000      -2.74493000       2.78341000
H       -0.55137000      -1.48686000       4.00512000
H       -1.67320000      -1.83649000       2.62370000
C        1.49564000      -0.69452000       2.48812000
H        1.56833000      -0.49254000       3.57855000
H        1.98615000      -1.64954000       2.24926000
H        1.98382000       0.11368000       1.92304000
C       -0.61966000      -1.76858000      -2.93231000
H       -0.55137000      -1.48686000      -4.00512000
H       -0.13040000      -2.74493000      -2.78341000
H       -1.67320000      -1.83649000      -2.62370000
C        1.49564000      -0.69452000      -2.48812000
H        1.98615000      -1.64954000      -2.24926000
H        1.56833000      -0.49254000      -3.57855000
H        1.98382000       0.11368000      -1.92304000
Ir      -0.04789000      -1.04107000       0.00000000
H        0.22985000       5.89995000       0.00000000

