%nprocshared=8
%chk=HZIrMeH.chk
%mem=2GB
# wb97xd def2TZVPP SCRF=(solvent=dichloromethane) opt freq

HZIrMeH

1 1
C       -1.69521000      -1.18753000      -0.34072000
C       -1.69523000       1.18749000      -0.34075000
C       -3.01337000      -1.23938000       0.02141000
C       -3.01340000       1.23932000       0.02138000
C       -3.78329000      -0.00004000       0.22779000
H       -3.53078000      -2.19308000       0.16459000
H       -3.53083000       2.19301000       0.16454000
O       -4.97556000      -0.00005000       0.55872000
N       -1.03862000      -0.00002000      -0.52645000
C       -0.75743000      -2.33260000      -0.66358000
H       -0.59363000      -2.34800000      -1.75713000
H       -1.14759000      -3.31887000      -0.34449000
C       -0.75748000       2.33257000      -0.66363000
H       -0.59366000       2.34794000      -1.75718000
H       -1.14766000       3.31883000      -0.34457000
N        0.60223000      -2.09651000      -0.03950000
N        0.60217000       2.09652000      -0.03950000
C        2.60722000       0.00004000       1.12475000
H        2.23246000       0.00009000       2.17469000
H        3.27426000      -0.88331000       1.02802000
H        3.27428000       0.88336000       1.02795000
C        1.61092000      -2.93285000      -0.72674000
H        2.58294000      -2.78364000      -0.23259000
H        1.32501000      -4.00415000      -0.67487000
H        1.68239000      -2.61101000      -1.77616000
C        0.52860000      -2.50433000       1.38889000
H        0.28019000      -3.58321000       1.45804000
H        1.49721000      -2.31215000       1.87149000
H       -0.25794000      -1.91548000       1.88910000
C        1.61086000       2.93289000      -0.72669000
H        1.32491000       4.00419000      -0.67483000
H        2.58287000       2.78371000      -0.23250000
H        1.68238000       2.61106000      -1.77611000
C        0.52846000       2.50433000       1.38889000
H        1.49705000       2.31217000       1.87154000
H        0.28002000       3.58321000       1.45803000
H       -0.25810000       1.91546000       1.88906000
H        2.22469000       0.00003000      -0.97277000
Ir       0.92129000       0.00001000      -0.11625000
H       -4.97556000       0.99995000       0.55872000

