%nprocshared=8
%chk=HZPtMeH_sigma.chk
%mem=2GB
# wb97xd def2TZVPP SCRF=(solvent=dichloromethane) opt freq

HZPtMeH_sigma

2 1
Pt       0.82600000      -0.00001000      -0.09574000
C       -1.68366000      -1.19894000      -0.36765000
C       -1.68365000       1.19896000      -0.36764000
C       -2.98173000      -1.24382000       0.03587000
C       -2.98172000       1.24385000       0.03587000
C       -3.74748000       0.00002000       0.26527000
H       -3.49865000      -2.19758000       0.17539000
H       -3.49862000       2.19761000       0.17540000
O       -4.91921000       0.00002000       0.62782000
N       -1.04301000       0.00001000      -0.62855000
C       -0.75785000      -2.34315000      -0.68376000
H       -0.57955000      -2.37451000      -1.77385000
H       -1.13989000      -3.32402000      -0.34971000
C       -0.75783000       2.34316000      -0.68375000
H       -0.57953000       2.37452000      -1.77384000
H       -1.13986000       3.32404000      -0.34969000
N        0.58633000      -2.07739000      -0.03585000
N        0.58635000       2.07738000      -0.03585000
C        3.16690000      -0.00000000       0.89809000
H        2.44082000      -0.00001000       1.72634000
H        3.78538000      -0.90550000       0.95482000
H        3.78533000       0.90552000       0.95480000
C        1.63712000      -2.86373000      -0.73261000
H        2.59403000      -2.73172000      -0.20485000
H        1.36502000      -3.93578000      -0.72346000
H        1.72733000      -2.51020000      -1.77012000
C        0.51848000      -2.49946000       1.39386000
H        0.34930000      -3.59134000       1.44446000
H        1.47019000      -2.25513000       1.89052000
H       -0.31277000      -1.97203000       1.88726000
C        1.63716000       2.86370000      -0.73262000
H        1.36506000       3.93576000      -0.72347000
H        2.59406000       2.73169000      -0.20487000
H        1.72735000       2.51018000      -1.77013000
C        0.51853000       2.49945000       1.39386000
H        1.47023000       2.25507000       1.89051000
H        0.34940000       3.59134000       1.44447000
H       -0.31273000       1.97205000       1.88726000
H        2.75020000      -0.00003000      -0.16904000
H       -4.91921000       1.00002000       0.62782000

