%nprocshared=8
%chk=HZRhMeH.chk
%mem=2GB
# wb97xd def2TZVPP SCRF=(solvent=dichloromethane) opt freq

HZRhMeH

1 1
C        1.51181000       1.18135000      -0.38925000
C        1.51182000      -1.18134000      -0.38925000
C        2.81966000       1.23658000       0.01348000
C        2.81966000      -1.23656000       0.01348000
C        3.58730000       0.00001000       0.23635000
H        3.32740000       2.19241000       0.17720000
H        3.32741000      -2.19240000       0.17721000
O        4.77147000       0.00001000       0.59770000
N        0.86014000       0.00000000      -0.60563000
C        0.57829000       2.33140000      -0.70206000
H        0.40153000       2.35296000      -1.79341000
H        0.97642000       3.31606000      -0.38431000
C        0.57829000      -2.33140000      -0.70205000
H        0.40154000      -2.35297000      -1.79340000
H        0.97643000      -3.31605000      -0.38429000
N       -0.76845000       2.09813000      -0.06090000
N       -0.76844000      -2.09813000      -0.06090000
C       -2.79168000       0.00002000       1.04029000
H       -2.39208000       0.00013000       2.08004000
H       -3.44736000       0.88771000       0.93664000
H       -3.44729000      -0.88773000       0.93678000
C       -1.78058000       2.95542000      -0.70948000
H       -2.74827000       2.80440000      -0.20767000
H       -1.48738000       4.02400000      -0.63449000
H       -1.87003000       2.66575000      -1.76701000
C       -0.66910000       2.45861000       1.37438000
H       -0.38858000       3.52774000       1.47647000
H       -1.63797000       2.28252000       1.86342000
H        0.10669000       1.83560000       1.85062000
C       -1.78056000      -2.95543000      -0.70949000
H       -1.48736000      -4.02400000      -0.63451000
H       -2.74826000      -2.80442000      -0.20769000
H       -1.87001000      -2.66576000      -1.76702000
C       -0.66909000      -2.45863000       1.37438000
H       -1.63798000      -2.28261000       1.86341000
H       -0.38852000      -3.52775000       1.47645000
H        0.10666000      -1.83559000       1.85064000
H       -2.35382000      -0.00001000      -1.01973000
Rh      -1.09885000      -0.00000000      -0.14422000
H        4.77147000       1.00001000       0.59770000

