%nprocshared=8
%chk=HZRh.chk
%mem=2GB
# wb97xd def2TZVPP SCRF=(solvent=dichloromethane) opt freq

HZRh

1 1
C        1.29836000       1.18275000      -0.29957000
C        1.29836000      -1.18275000      -0.29957000
C        2.65091000       1.22941000      -0.07856000
C        2.65091000      -1.22941000      -0.07856000
C        3.43977000       0.00000000       0.07010000
H        3.17615000       2.18882000      -0.03441000
H        3.17615000      -2.18882000      -0.03441000
O        4.66111000       0.00000000       0.28458000
N        0.62294000       0.00000000      -0.39931000
C        0.36995000       2.33851000      -0.58525000
H        0.18682000       2.37859000      -1.67542000
H        0.78082000       3.31540000      -0.25593000
C        0.36995000      -2.33851000      -0.58525000
H        0.18682000      -2.37859000      -1.67542000
H        0.78082000      -3.31540000      -0.25593000
N       -0.96289000       2.09117000       0.05855000
N       -0.96289000      -2.09117000       0.05855000
C       -1.98375000       2.94652000      -0.57575000
H       -2.94868000       2.78755000      -0.06686000
H       -1.70582000       4.02011000      -0.49087000
H       -2.07944000       2.66779000      -1.63586000
C       -0.85735000       2.44389000       1.49577000
H       -0.65319000       3.53237000       1.60374000
H       -1.80094000       2.19388000       2.00443000
H       -0.03738000       1.86549000       1.94787000
C       -1.98375000      -2.94652000      -0.57575000
H       -1.70582000      -4.02011000      -0.49087000
H       -2.94868000      -2.78755000      -0.06686000
H       -2.07944000      -2.66780000      -1.63586000
C       -0.85734000      -2.44389000       1.49578000
H       -1.80094000      -2.19388000       2.00443000
H       -0.65319000      -3.53237000       1.60374000
H       -0.03738000      -1.86549000       1.94787000
Rh      -1.25293000       0.00000000      -0.06655000
H        4.66111000       1.00000000       0.28458000

