%nprocshared=8
%chk=HZRhMeH_sigma.chk
%mem=2GB
# wb97xd def2TZVPP SCRF=(solvent=dichloromethane) opt freq

HZRhMeH_sigma

1 1
C        1.53315000       1.17883000      -0.30889000
C        1.53315000      -1.17884000      -0.30889000
C        2.86908000       1.22959000      -0.00180000
C        2.86908000      -1.22960000      -0.00179000
C        3.64916000      -0.00000000       0.18844000
H        3.38795000       2.18916000       0.09015000
H        3.38795000      -2.18917000       0.09016000
O        4.85580000      -0.00000000       0.47577000
N        0.86296000      -0.00000000      -0.46087000
C        0.61531000       2.33551000      -0.62390000
H        0.46619000       2.37492000      -1.71929000
H        1.01272000       3.31385000      -0.28373000
C        0.61531000      -2.33551000      -0.62389000
H        0.46619000      -2.37493000      -1.71929000
H        1.01271000      -3.31386000      -0.28372000
N       -0.74266000       2.09360000      -0.02402000
N       -0.74267000      -2.09360000      -0.02402000
C       -3.39918000       0.00000000       0.57410000
H       -2.64004000       0.00001000       1.38713000
H       -4.01954000       0.90277000       0.66061000
H       -4.01952000      -0.90278000       0.66062000
C       -1.73852000       2.93864000      -0.71102000
H       -2.71873000       2.80190000      -0.22632000
H       -1.45228000       4.01110000      -0.64880000
H       -1.80644000       2.63002000      -1.76511000
C       -0.69718000       2.46933000       1.40926000
H       -0.48856000       3.55709000       1.51061000
H       -1.66850000       2.23872000       1.87598000
H        0.09642000       1.89163000       1.90785000
C       -1.73853000      -2.93863000      -0.71103000
H       -1.45228000      -4.01110000      -0.64880000
H       -2.71874000      -2.80190000      -0.22633000
H       -1.80644000      -2.63002000      -1.76511000
C       -0.69720000      -2.46933000       1.40926000
H       -1.66851000      -2.23871000       1.87597000
H       -0.48858000      -3.55708000       1.51061000
H        0.09640000      -1.89163000       1.90785000
H       -2.95363000       0.00001000      -0.47711000
Rh      -1.04436000       0.00000000      -0.12660000
H        4.85580000       1.00000000       0.47577000

