%nprocshared=48
%chk=QST2_ZIrMeH_sigma_ZIrMeH.chk
%mem=16GB
# wb97xd def2TZVPP SCRF=(solvent=dichloromethane) opt=qst2 freq

ts_xyz/ZIrMeH_sigma.xyz

0 1
C         -1.71978       -1.16905       -0.19473
C         -1.71978        1.16905       -0.19473
C         -3.06928       -1.21586       -0.00808
C         -3.06927        1.21586       -0.00808
C         -3.83922        0.00001        0.12019
H         -3.58581       -2.16554        0.03465
H         -3.58580        2.16555        0.03465
O         -5.07441        0.00001        0.31157
N         -1.05529        0.00000       -0.25573
C         -0.81990       -2.34074       -0.47914
H         -0.76065       -2.44656       -1.56298
H         -1.21555       -3.27344       -0.07257
C         -0.81989        2.34075       -0.47914
H         -0.76064        2.44656       -1.56298
H         -1.21554        3.27344       -0.07257
N          0.57542       -2.11152        0.01463
N          0.57543        2.11152        0.01463
C          3.24431       -0.00000        0.42317
H          2.73319       -0.00001        1.38669
H          3.86129       -0.89179        0.34323
H          3.86129        0.89180        0.34325
C          1.50014       -2.94564       -0.77259
H          2.50622       -2.82976       -0.37661
H          1.21544       -4.00093       -0.71604
H          1.48641       -2.61806       -1.80878
C          0.64780       -2.53421        1.42996
H          0.43837       -3.60514        1.51502
H          1.64253       -2.33157        1.81880
H         -0.08054       -1.97818        2.01511
C          1.50015        2.94564       -0.77259
H          1.21545        4.00092       -0.71604
H          2.50623        2.82975       -0.37661
H          1.48641        2.61805       -1.80878
C          0.64781        2.53420        1.42996
H          1.64254        2.33156        1.81879
H          0.43839        3.60514        1.51502
H         -0.08053        1.97818        2.01512
H          2.62059        0.00001       -0.56336
Ir         0.89167       -0.00000       -0.09189

ts_xyz/ZIrMeH.xyz

0 1
C         -1.72432       -1.16882       -0.28111
C         -1.72432        1.16882       -0.28111
C         -3.06006       -1.22081       -0.01210
C         -3.06006        1.22081       -0.01210
C         -3.82219       -0.00000        0.14428
H         -3.57126       -2.16843        0.09354
H         -3.57126        2.16843        0.09354
O         -5.04414       -0.00000        0.40330
N         -1.07865       -0.00000       -0.41153
C         -0.80315       -2.33600       -0.53746
H         -0.69295       -2.43541       -1.61769
H         -1.20780       -3.27360       -0.15318
C         -0.80315        2.33600       -0.53747
H         -0.69295        2.43541       -1.61769
H         -1.20780        3.27360       -0.15318
N          0.57682       -2.11235        0.01924
N          0.57682        2.11235        0.01924
C          2.95000        0.00000        0.53994
H          2.99785        0.00000        1.64129
H          3.52914       -0.87468        0.21746
H          3.52914        0.87467        0.21746
C          1.52587       -2.97505       -0.70605
H          2.51438       -2.85612       -0.27145
H          1.22292       -4.02360       -0.63559
H          1.55861       -2.67384       -1.74949
C          0.58152       -2.49777        1.44789
H          0.32599       -3.55417        1.55940
H          1.57020       -2.31745        1.86266
H         -0.15056       -1.90052        1.99074
C          1.52587        2.97505       -0.70605
H          1.22292        4.02360       -0.63559
H          2.51438        2.85612       -0.27144
H          1.55861        2.67384       -1.74949
C          0.58152        2.49777        1.44789
H          1.57019        2.31745        1.86266
H          0.32599        3.55417        1.55940
H         -0.15056        1.90052        1.99074
H          1.42637        0.00000       -1.53262
Ir         0.93768        0.00000       -0.08254

