%nprocshared=48
%chk=QST2_HZRhMeH_sigma_HZRhMeH.chk
%mem=64GB
# wb97xd def2TZVPP SCRF=(solvent=dichloromethane) opt=qst2 freq

ts_xyz/HZRhMeH_sigma.xyz

1 1
C          1.51861        1.15313       -0.18867
C          1.50287       -1.17951       -0.18915
C          2.88689        1.18387       -0.03577
C          2.86774       -1.23080       -0.03501
C          3.57003       -0.02872        0.05707
H          3.41531        2.12640        0.00339
H          3.39412       -2.17277        0.00649
O          4.89643       -0.10166        0.22052
N          0.85905       -0.00719       -0.23013
C          0.63992        2.34400       -0.44461
H          0.60770        2.48289       -1.52634
H          1.04966        3.25725       -0.00711
C          0.60529       -2.35541       -0.44800
H          0.56791       -2.48907       -1.53022
H          1.00265       -3.27642       -0.01551
N         -0.75572        2.11556        0.02086
N         -0.78550       -2.10748        0.02194
C         -3.48243        0.02276        0.18415
H         -2.84992        0.01890        1.08729
H         -4.09126        0.92155        0.19744
H         -4.10269       -0.86816        0.19770
C         -1.67085        2.95800       -0.76605
H         -2.68224        2.83168       -0.38795
H         -1.39532        4.01441       -0.68902
H         -1.64104        2.64908       -1.80791
C         -0.85453        2.49296        1.44504
H         -0.64411        3.55958        1.57242
H         -1.85783        2.28310        1.80698
H         -0.14252        1.91443        2.02910
C         -1.71458       -2.93790       -0.76133
H         -1.45203       -3.99768       -0.68572
H         -2.72281       -2.79897       -0.37915
H         -1.68503       -2.62918       -1.80327
C         -0.88460       -2.48264        1.44674
H         -1.88330       -2.25780        1.81241
H         -0.68937       -3.55214        1.57400
H         -0.16168       -1.91467        2.02778
H         -2.92173        0.01903       -0.78474
Rh        -1.08230        0.00607       -0.11118
H          5.28682        0.77398        0.26568

ts_xyz/HZRhMeH.xyz

1 1
C          1.52250        1.15420       -0.24192
C          1.50707       -1.17942       -0.24469
C          2.88503        1.19049       -0.04059
C          2.86611       -1.23638       -0.04288
C          3.56119       -0.02821        0.06641
H          3.41563        2.12941        0.03615
H          3.39481       -2.17474        0.03395
O          4.87912       -0.10186        0.27638
N          0.88480       -0.00679       -0.32608
C          0.61650        2.33644       -0.47518
H          0.55286        2.47828       -1.55478
H          1.02282        3.25343       -0.04438
C          0.58239       -2.34614       -0.48130
H          0.51121       -2.48088       -1.56134
H          0.97701       -3.27122       -0.05719
N         -0.77452        2.10541        0.02542
N         -0.80248       -2.09665        0.02728
C         -3.18102        0.01883        0.25051
H         -3.31941        0.01066        1.34146
H         -3.69390        0.90540       -0.13303
H         -3.70821       -0.85244       -0.14820
C         -1.69163        3.00998       -0.68853
H         -2.69193        2.89210       -0.28283
H         -1.37616        4.05017       -0.56899
H         -1.70417        2.74975       -1.74337
C         -0.82514        2.40168        1.47222
H         -0.55526        3.44358        1.66133
H         -1.83231        2.21959        1.83877
H         -0.12798        1.75640        2.00670
C         -1.73567       -2.99013       -0.67970
H         -1.43192       -4.03403       -0.56227
H         -2.73154       -2.85982       -0.26688
H         -1.75248       -2.72990       -1.73448
C         -0.84715       -2.39042        1.47487
H         -1.84960       -2.19577        1.84783
H         -0.58850       -3.43524        1.66343
H         -0.13851       -1.75308        2.00366
H         -1.49465        0.00742       -1.57419
Rh        -1.15325        0.00608       -0.11230
H          5.26962        0.77278        0.33971

