%nprocshared=8
%chk=TS_ZPtMeH_ZPtMeHsigma.chk
%mem=1GB
# wb97xd def2TZVPP SCRF=(solvent=dichloromethane) opt=ts freq

TS_ZPtMeH_ZPtMeHsigma

1 1
Pt         0.89675       -0.00013       -0.11291
C         -1.69765       -1.20132       -0.31189
C         -1.69723        1.20195       -0.31141
C         -3.01822       -1.24882        0.00881
C         -3.01778        1.24978        0.00933
C         -3.78542        0.00057        0.21915
H         -3.55311       -2.19795        0.10143
H         -3.55235        2.19906        0.10229
O         -4.96973        0.00071        0.53719
N         -1.03386        0.00023       -0.45337
C         -0.76075       -2.33026       -0.66190
H         -0.60183       -2.33677       -1.75582
H         -1.12549       -3.32390       -0.34649
C         -0.76005        2.33072       -0.66125
H         -0.60164        2.33764       -1.75525
H         -1.12437        3.32435       -0.34532
N          0.60278       -2.08378       -0.03546
N          0.60372        2.08361       -0.03552
C          2.68204       -0.00066        1.04386
H          2.20436        0.00024        2.04170
H          3.31664       -0.89411        0.94546
H          3.31825        0.89157        0.94465
C          1.62271       -2.90445       -0.74099
H          2.59315       -2.78392       -0.23751
H          1.32304       -3.96814       -0.70764
H          1.69722       -2.56912       -1.78557
C          0.53717       -2.49703        1.39840
H          0.30709       -3.57675        1.45033
H          1.50577       -2.30734        1.88164
H         -0.25981       -1.92721        1.90242
C          1.62374        2.90359       -0.74174
H          1.32481        3.96748       -0.70826
H          2.59442        2.78240       -0.23884
H          1.69737        2.56814       -1.78634
C          0.53932        2.49710        1.39831
H          1.50822        2.30707        1.88084
H          0.30975        3.57692        1.45027
H         -0.25752        1.92767        1.90298
H          2.37193       -0.00020       -0.64929

