%nprocshared=8
%chk=ZIr.chk
%mem=1GB
# wb97xd def2TZVPP SCRF=(solvent=dichloromethane) opt freq

ZIr

0 1
C         -0.23915        1.51955        1.18690
C         -0.23915        1.51955       -1.18690
C         -0.07739        2.88049        1.22947
C         -0.07739        2.88049       -1.22947
C          0.05562        3.67210        0.00000
H         -0.07688        3.40995        2.18737
H         -0.07688        3.40995       -2.18737
O          0.22985        4.89995        0.00000
N         -0.27763        0.84266        0.00000
C         -0.55182        0.58716        2.33325
H         -1.64587        0.42711        2.36050
H         -0.22373        0.98413        3.31481
C         -0.55182        0.58716       -2.33325
H         -1.64587        0.42711       -2.36050
H         -0.22373        0.98413       -3.31481
N          0.06379       -0.76475        2.08774
N          0.06379       -0.76475       -2.08774
C         -0.61966       -1.76858        2.93231
H         -0.13040       -2.74493        2.78341
H         -0.55137       -1.48686        4.00512
H         -1.67320       -1.83649        2.62370
C          1.49564       -0.69452        2.48812
H          1.56833       -0.49254        3.57855
H          1.98615       -1.64954        2.24926
H          1.98382        0.11368        1.92304
C         -0.61966       -1.76858       -2.93231
H         -0.55137       -1.48686       -4.00512
H         -0.13040       -2.74493       -2.78341
H         -1.67320       -1.83649       -2.62370
C          1.49564       -0.69452       -2.48812
H          1.98615       -1.64954       -2.24926
H          1.56833       -0.49254       -3.57855
H          1.98382        0.11368       -1.92304
Ir        -0.04789       -1.04107        0.00000

