%nprocshared=8
%chk=ZIrMeH.chk
%mem=1GB
# wb97xd def2TZVPP SCRF=(solvent=dichloromethane) opt freq

ZIrMeH

0 1
C         -1.69521       -1.18753       -0.34072
C         -1.69523        1.18749       -0.34075
C         -3.01337       -1.23938        0.02141
C         -3.01340        1.23932        0.02138
C         -3.78329       -0.00004        0.22779
H         -3.53078       -2.19308        0.16459
H         -3.53083        2.19301        0.16454
O         -4.97556       -0.00005        0.55872
N         -1.03862       -0.00002       -0.52645
C         -0.75743       -2.33260       -0.66358
H         -0.59363       -2.34800       -1.75713
H         -1.14759       -3.31887       -0.34449
C         -0.75748        2.33257       -0.66363
H         -0.59366        2.34794       -1.75718
H         -1.14766        3.31883       -0.34457
N          0.60223       -2.09651       -0.03950
N          0.60217        2.09652       -0.03950
C          2.60722        0.00004        1.12475
H          2.23246        0.00009        2.17469
H          3.27426       -0.88331        1.02802
H          3.27428        0.88336        1.02795
C          1.61092       -2.93285       -0.72674
H          2.58294       -2.78364       -0.23259
H          1.32501       -4.00415       -0.67487
H          1.68239       -2.61101       -1.77616
C          0.52860       -2.50433        1.38889
H          0.28019       -3.58321        1.45804
H          1.49721       -2.31215        1.87149
H         -0.25794       -1.91548        1.88910
C          1.61086        2.93289       -0.72669
H          1.32491        4.00419       -0.67483
H          2.58287        2.78371       -0.23250
H          1.68238        2.61106       -1.77611
C          0.52846        2.50433        1.38889
H          1.49705        2.31217        1.87154
H          0.28002        3.58321        1.45803
H         -0.25810        1.91546        1.88906
H          2.22469        0.00003       -0.97277
Ir         0.92129        0.00001       -0.11625

