%nprocshared=8
%chk=ZIrMeH_sigma.chk
%mem=1GB
# wb97xd def2TZVPP SCRF=(solvent=dichloromethane) opt freq

ZIrMeH_sigma

0 1
C         -1.71027       -1.18235       -0.25687
C         -1.71056        1.18205       -0.25714
C         -3.05511       -1.23139        0.00696
C         -3.05542        1.23082        0.00667
C         -3.83759       -0.00036        0.18182
H         -3.58026       -2.18937        0.07432
H         -3.58079        2.18869        0.07379
O         -5.05115       -0.00048        0.43818
N         -1.03743       -0.00008       -0.37010
C         -0.78693       -2.33205       -0.58637
H         -0.65546       -2.36489       -1.68412
H         -1.17157       -3.31336       -0.24405
C         -0.78740        2.33186       -0.58672
H         -0.65565        2.36447       -1.68444
H         -1.17229        3.31317       -0.24469
N          0.58937       -2.09113       -0.01149
N          0.58879        2.09125       -0.01144
C          3.14721        0.00016        0.66189
H          2.54823        0.00135        1.58850
H          3.78151       -0.89957        0.63792
H          3.78266        0.89904        0.63630
C          1.56590       -2.92678       -0.74467
H          2.55611       -2.80627       -0.27704
H          1.27125       -3.99695       -0.70217
H          1.61099       -2.58664       -1.78977
C          0.57771       -2.51130        1.41429
H          0.38028       -3.60243        1.48443
H          1.55665       -2.28260        1.86498
H         -0.20940       -1.95374        1.94464
C          1.56542        2.92707       -0.74428
H          1.27071        3.99722       -0.70171
H          2.55552        2.80653       -0.27641
H          1.61079        2.58707       -1.78940
C          0.57657        2.51143        1.41433
H          1.55550        2.28320        1.86528
H          0.37866        3.60248        1.48440
H         -0.21043        1.95354        1.94450
H          2.62738       -0.00003       -0.42150
Ir         0.88619        0.00010       -0.09867

