%nprocshared=48
%chk=ZPtMeMe_sigma.chk
%mem=16GB
# wb97xd def2TZVPP SCRF=(solvent=dichloromethane) opt freq

ZPtMeMe_sigma

1 1
Pt       0.77069400       0.04876900      -0.08448800      
C       -1.67797500      -1.37480100      -0.14231000      
C       -1.90192500       0.97817200      -0.06698100      
C       -2.99732500      -1.55200700       0.11017800      
C       -3.22855900       0.88821000       0.19088600      
C       -3.87117800      -0.40919600       0.31584900      
H       -3.42075600      -2.54579700       0.15204900      
H       -3.83090400       1.77969000       0.29272400      
O       -5.07735800      -0.53177400       0.56976800      
N       -1.15138400      -0.13562700      -0.21574700      
C       -0.66768400      -2.43413400      -0.47724100      
H       -0.58927600      -2.51039200      -1.56308600      
H       -0.95131000      -3.40932700      -0.08696100      
C       -1.11672500       2.23091200      -0.34269900      
H       -1.10873000       2.38693400      -1.42154000      
H       -1.56211600       3.10931600       0.12342900      
N        0.68644600      -2.04923100       0.03453100      
N        0.31416000       2.09441000       0.08896200      
C        3.53315300       0.31378800       0.10415900      
H        2.55652200      -0.11618500       0.49899900      
H        4.23891300      -0.26879400       0.69790500      
H        3.59945500       1.34042800       0.45666600      
C        1.72651900      -2.77203200      -0.72889700      
H        2.70482300      -2.54744200      -0.30366400      
H        1.55541800      -3.84831500      -0.65886300      
H        1.69908700      -2.46546600      -1.76686900      
C        0.78357000      -2.43905600       1.46779700      
H        0.70472900      -3.52248400       1.55728900      
H        1.73385400      -2.11286000       1.87903000      
H       -0.02775700      -1.97142800       2.02581000      
C        1.15720400       3.00444600      -0.71263800      
H        0.80064800       4.03016800      -0.60971900      
H        2.18328300       2.95409900      -0.35644400      
H        1.11867300       2.70739500      -1.75678000      
C        0.41517700       2.46926700       1.52511300      
H        1.43257100       2.31691700       1.87534800      
H        0.14930400       3.52144200       1.64459200      
H       -0.26513800       1.85636000       2.11136100      
C        3.73660300       0.19525800      -1.46045900      
H        3.79331000      -0.84462300      -1.78493800      
H        2.92025500       0.67563800      -2.02159200      
H        4.64405900       0.68396500      -1.80780600      

