%nprocshared=8
%chk=ZRhMeH.chk
%mem=1GB
# wb97xd def2TZVPP SCRF=(solvent=dichloromethane) opt freq

ZRhMeH

0 1
C          1.51181        1.18135       -0.38925
C          1.51182       -1.18134       -0.38925
C          2.81966        1.23658        0.01348
C          2.81966       -1.23656        0.01348
C          3.58730        0.00001        0.23635
H          3.32740        2.19241        0.17720
H          3.32741       -2.19240        0.17721
O          4.77147        0.00001        0.59770
N          0.86014        0.00000       -0.60563
C          0.57829        2.33140       -0.70206
H          0.40153        2.35296       -1.79341
H          0.97642        3.31606       -0.38431
C          0.57829       -2.33140       -0.70205
H          0.40154       -2.35297       -1.79340
H          0.97643       -3.31605       -0.38429
N         -0.76845        2.09813       -0.06090
N         -0.76844       -2.09813       -0.06090
C         -2.79168        0.00002        1.04029
H         -2.39208        0.00013        2.08004
H         -3.44736        0.88771        0.93664
H         -3.44729       -0.88773        0.93678
C         -1.78058        2.95542       -0.70948
H         -2.74827        2.80440       -0.20767
H         -1.48738        4.02400       -0.63449
H         -1.87003        2.66575       -1.76701
C         -0.66910        2.45861        1.37438
H         -0.38858        3.52774        1.47647
H         -1.63797        2.28252        1.86342
H          0.10669        1.83560        1.85062
C         -1.78056       -2.95543       -0.70949
H         -1.48736       -4.02400       -0.63451
H         -2.74826       -2.80442       -0.20769
H         -1.87001       -2.66576       -1.76702
C         -0.66909       -2.45863        1.37438
H         -1.63798       -2.28261        1.86341
H         -0.38852       -3.52775        1.47645
H          0.10666       -1.83559        1.85064
H         -2.35382       -0.00001       -1.01973
Rh        -1.09885       -0.00000       -0.14422

