%nprocshared=48
%chk=trans-F_Ir_PH3_2_CO.chk
%mem=16GB
# PBEPBE GenECP Pop=NBO7

trans-(F)Ir(PH3)2(CO)

0 1 
Ir
C,1,B1
P,1,B2,2,A1 
F,1,B3,3,A2,2,D1,0 
P,1,B4,2,A3,3,D2,0 
O,2,B5,1,A4,3,D3,0 
H,3,B6,1,A5,2,D4,0 
H,3,B7,1,A6,2,D5,0 
H,3,B8,1,A7,2,D6,0 
H,5,B9,1,A8,2,D7,0 
H,5,B10,1,A9,2,D8,0 
H,5,B11,1,A10,2,D9,0
Variables: 
B2=2.30848332 
B3=2.02043832 
B4=2.30848389 
B5=1.17074014 
B6=1.42496596 
B7=1.42496009 
B8=1.42388528 
B9=1.42496375
B10=1.42496991 
B11=1.42388655 
A4=179.99910481
A5=118.83563037 
A6=118.83536716 
A7=117.34977094 
A8=118.83531691 
A9=118.83560096 
A10=117.34980369 
D3=-46.72125508 
D4=-59.79094907 
D5=59.7931955 
D6=-179.99799281 
D7=-59.79290426 
D8=59.79119934 
D9=179.9982539
Constants: 
B1=1.86796
A1=90. 
A2=90. 
A3=90. 
D1=-180. 
D2=-180.

O C F P H 0
6-311+G(d,p)
****
Ir 0
SDD
****

Ir 0
SDD

$NBO FILE=NBODATA
AOPNAO=W32 AOPNHO=W34 AOPNBO=W36
DMNAO=W82 DMNHO=W84 DMNBO=W86
FNAO=W92 FNHO=W94 FNBO=W96
BNDIDX
$END
