%nprocshared=48
%chk=trans-H_Ir_PH3_2_CO.chk
%mem=16GB
# PBEPBE GenECP Pop=NBO7

trans-(H)Ir(PH3)2(CO)

0 1 
Ir
C,1,B1
P,1,B2,2,A1 
H,1,B3,3,A2,2,D1,0 
P,1,B4,2,A3,3,D2,0 
O,2,B5,1,A4,3,D3,0 
H,3,B6,1,A5,2,D4,0 
H,3,B7,1,A6,2,D5,0 
H,3,B8,1,A7,2,D6,0 
H,5,B9,1,A8,2,D7,0 
H,5,B10,1,A9,2,D8,0 
H,5,B11,1,A10,2,D9,0
Variables: 
B2=2.28960169
B3=1.6836208 
B4=2.28966148 
B5=1.16851758 
B6=1.42740622 
B7=1.42416028 
B8=1.42743226
B9=1.42415167 
B10=1.42740947 
B11=1.42743125 
A4=179.93846016 
A5=119.68660002 
A6=118.79066003 
A7=119.67533363 
A8=118.79048407 
A9=119.68323861 
A10=119.68060812 
D3=29.91754209 
D4=-120.08694774 
D5=-0.12356899 
D6=119.82073269 
D7=0.09623143 
D8=120.05500937 
D9=-119.85203621
Constants: 
B1=1.86796
A1=90. 
A2=90. 
A3=90. 
D1=180. 
D2=-180.

C P H O 0
6-311+G(d,p)
****
Ir 0
SDD
****

Ir 0
SDD

$NBO FILE=NBODATA
AOPNAO=W32 AOPNHO=W34 AOPNBO=W36
DMNAO=W82 DMNHO=W84 DMNBO=W86
FNAO=W92 FNHO=W94 FNBO=W96
BNDIDX
$END
