%nprocshared=48
%chk=scan_YPtMeH_reverse.chk
%mem=16GB
# wb97xd def2TZVPP SCRF=(solvent=dichloromethane) opt=modredundant

scan_YPtMeH

1 1
 C                 -1.93367481   -1.22508160   -0.16734101
 C                 -1.93230218    1.23504788   -0.11767897
 C                 -3.32135999   -1.23165793    0.02138981
 C                 -3.32076480    1.23417697    0.07247329
 C                 -3.99237500   -0.00020680    0.14817938
 H                 -3.89094251   -2.16616782    0.06424947
 H                 -3.88985299    2.16646940    0.15341261
 C                 -1.00877128   -2.39291704   -0.43893131
 H                 -0.92108804   -2.55793248   -1.52877652
 H                 -1.31628729   -3.35069812    0.02299691
 C                 -1.01602405    2.41425553   -0.36284395
 H                 -0.97969162    2.63707289   -1.44515572
 H                 -1.30334828    3.34672848    0.15970219
 N                  0.40090432   -2.06894345    0.05038966
 N                  0.41864066    2.07663944    0.04357103
 C                  2.83624585   -0.04939907    0.19019702
 H                  3.11436059   -0.74356260    1.01149898
 H                  3.38161118   -0.41273623   -0.70166487
 H                  3.29230681    0.92348732    0.45371565
 C                  1.39000693   -2.93708520   -0.64136507
 H                  2.38531386   -2.75767876   -0.21057093
 H                  1.10423948   -3.99624942   -0.50271133
 H                  1.39822440   -2.69022455   -1.71306290
 C                  0.45983023   -2.32734326    1.51952854
 H                  0.27845310   -3.40134410    1.70831881
 H                  1.45457742   -2.05238107    1.90001170
 H                 -0.32490346   -1.73584844    2.02030330
 C                  1.35785253    2.95078569   -0.70885956
 H                  1.06999998    4.00721639   -0.55387238
 H                  2.37946224    2.78594671   -0.34205142
 H                  1.30074096    2.70386697   -1.77881379
 C                  0.57458416    2.32700981    1.50660274
 H                  1.58884845    2.03372365    1.81888184
 H                  0.41947886    3.40148373    1.71574748
 H                 -0.18499138    1.74149605    2.05268248
 H                 -5.07523702   -0.00294996    0.29980808
 C                 -1.27454380    0.00648161   -0.20603731
 Pt                 0.70957563    0.00053457   -0.10941309
 H                  0.72278828    0.00031396   -1.62003513

A 16 38 39 S 3 -5.0

